NAME : traveling-santa-2018-prime-paths.29229.tour
COMMENT : Length = 29229
COMMENT : Found by LKH [Keld Helsgaun] Sun Jun 12 19:59:58 2022
TYPE : TOUR
DIMENSION : 100
TOUR_SECTION
1
5
24
98
9
86
73
51
71
49
37
70
3
38
99
78
43
40
72
41
77
12
62
13
26
20
47
65
93
84
94
76
100
79
64
88
80
36
48
23
16
25
14
89
10
30
96
34
54
81
32
45
52
46
92
82
91
42
66
17
69
39
67
7
53
8
90
55
19
50
63
95
75
87
4
22
74
61
28
44
56
18
2
27
35
15
58
6
85
97
83
21
29
11
57
33
31
59
68
60
-1
EOF
